p cnf 10 50
6 -7 -8 0
2 -8 6 0
-6 -1 -5 0
-7 3 9 0
4 1 -6 0
8 1 -10 0
4 -9 -7 0
-2 -1 7 0
-2 -5 -7 0
8 7 1 0
-3 -9 10 0
-9 -6 10 0
6 2 -5 0
8 7 -6 0
-1 -4 5 0
6 -2 7 0
1 -10 9 0
-7 -4 9 0
-9 8 1 0
-4 -10 8 0
5 -3 -1 0
-6 8 -7 0
10 -9 -4 0
-10 1 6 0
3 -1 6 0
-10 4 -8 0
9 1 -4 0
-8 -6 9 0
2 8 3 0
-9 -7 -1 0
-4 6 9 0
-2 8 -6 0
-10 2 -5 0
8 5 2 0
10 -6 7 0
-7 -1 5 0
3 -7 1 0
3 -10 2 0
5 10 -9 0
-1 -9 -7 0
-9 1 2 0
6 -2 -9 0
-7 -8 3 0
-7 2 -3 0
3 5 10 0
-3 10 -6 0
1 -4 -10 0
-8 5 10 0
6 -7 5 0
-10 7 -2 0
